NAME: line_40_8
TYPE: TSP
COMMENT: line_40_8
DIMENSION: 40
EDGE_WEIGHT_TYPE: EUC_2D
NODE_COORD_SECTION
1 0.0 169.0
2 0.0 322.0
3 0.0 24.0
4 0.0 270.0
5 0.0 175.0
6 0.0 25.0
7 0.0 340.0
8 0.0 148.0
9 0.0 185.0
10 0.0 172.0
11 0.0 268.0
12 0.0 113.0
13 0.0 328.0
14 0.0 17.0
15 0.0 274.0
16 0.0 41.0
17 0.0 76.0
18 0.0 177.0
19 0.0 263.0
20 0.0 359.0
21 0.0 254.0
22 0.0 362.0
23 0.0 35.0
24 0.0 77.0
25 0.0 183.0
26 0.0 38.0
27 0.0 218.0
28 0.0 150.0
29 0.0 353.0
30 0.0 334.0
31 0.0 271.0
32 0.0 292.0
33 0.0 364.0
34 0.0 23.0
35 0.0 244.0
36 0.0 337.0
37 0.0 388.0
38 0.0 144.0
39 0.0 220.0
40 0.0 89.0
